Source USAVG.2116
Time 2.00004 ms
Export Particle_Data
Data x y z sxx syy szz sxy sxz syz mat mass
Format text
EndHeader
0	0	0	14526.3	20105.8	-95689.3	-796.893	21926.6	6021.36	1	1.48148e-05
0.5	0.25	0.2	14526.3	20105.8	-95689.3	-796.893	21926.6	6021.36	1	1.48148e-05
-0.5	-0.20	0.2	14526.3	20105.8	-95689.3	-796.893	21926.6	6021.36	1	1.48148e-05
.2	.5	-0.25	14526.3	20105.8	-95689.3	-796.893	21926.6	6021.36	1	1.48148e-05
